p edge 110 3041
e 1 3
e 1 5
e 1 7
e 1 8
e 1 13
e 1 14
e 1 21
e 1 22
e 1 23
e 1 25
e 1 28
e 1 30
e 1 31
e 1 34
e 1 37
e 1 40
e 1 43
e 1 44
e 1 45
e 1 47
e 1 49
e 1 50
e 1 51
e 1 55
e 1 58
e 1 60
e 1 62
e 1 64
e 1 65
e 1 66
e 1 67
e 1 68
e 1 69
e 1 70
e 1 71
e 1 73
e 1 74
e 1 76
e 1 78
e 1 79
e 1 81
e 1 84
e 1 86
e 1 87
e 1 89
e 1 90
e 1 91
e 1 92
e 1 94
e 1 97
e 1 98
e 1 99
e 1 102
e 1 103
e 1 104
e 1 105
e 1 106
e 1 109
e 2 3
e 2 7
e 2 12
e 2 13
e 2 14
e 2 23
e 2 30
e 2 32
e 2 34
e 2 37
e 2 38
e 2 41
e 2 47
e 2 48
e 2 52
e 2 53
e 2 54
e 2 55
e 2 58
e 2 59
e 2 60
e 2 61
e 2 62
e 2 64
e 2 70
e 2 71
e 2 75
e 2 77
e 2 78
e 2 82
e 2 83
e 2 85
e 2 86
e 2 95
e 2 99
e 2 101
e 2 102
e 2 103
e 2 104
e 2 105
e 2 106
e 3 6
e 3 7
e 3 8
e 3 9
e 3 10
e 3 11
e 3 12
e 3 13
e 3 14
e 3 15
e 3 16
e 3 17
e 3 23
e 3 25
e 3 27
e 3 28
e 3 29
e 3 31
e 3 36
e 3 37
e 3 38
e 3 39
e 3 44
e 3 47
e 3 51
e 3 54
e 3 55
e 3 56
e 3 57
e 3 58
e 3 59
e 3 60
e 3 62
e 3 64
e 3 66
e 3 67
e 3 68
e 3 70
e 3 73
e 3 75
e 3 77
e 3 78
e 3 79
e 3 85
e 3 87
e 3 88
e 3 89
e 3 90
e 3 91
e 3 94
e 3 95
e 3 97
e 3 99
e 3 101
e 3 102
e 3 105
e 3 108
e 3 109
e 4 7
e 4 9
e 4 10
e 4 11
e 4 13
e 4 15
e 4 16
e 4 19
e 4 20
e 4 21
e 4 25
e 4 26
e 4 27
e 4 28
e 4 29
e 4 31
e 4 32
e 4 33
e 4 37
e 4 39
e 4 40
e 4 41
e 4 42
e 4 45
e 4 46
e 4 53
e 4 54
e 4 56
e 4 57
e 4 58
e 4 59
e 4 62
e 4 65
e 4 66
e 4 67
e 4 68
e 4 69
e 4 73
e 4 74
e 4 75
e 4 76
e 4 78
e 4 80
e 4 82
e 4 84
e 4 86
e 4 87
e 4 94
e 4 99
e 4 100
e 4 101
e 4 102
e 4 103
e 4 105
e 4 107
e 4 108
e 5 6
e 5 9
e 5 13
e 5 14
e 5 17
e 5 19
e 5 21
e 5 22
e 5 26
e 5 28
e 5 32
e 5 33
e 5 37
e 5 44
e 5 46
e 5 48
e 5 49
e 5 51
e 5 52
e 5 53
e 5 57
e 5 58
e 5 59
e 5 60
e 5 61
e 5 62
e 5 63
e 5 65
e 5 69
e 5 72
e 5 74
e 5 75
e 5 76
e 5 81
e 5 83
e 5 84
e 5 87
e 5 88
e 5 89
e 5 91
e 5 92
e 5 96
e 5 97
e 5 98
e 5 99
e 5 100
e 5 103
e 5 108
e 5 110
e 6 7
e 6 18
e 6 19
e 6 22
e 6 23
e 6 25
e 6 26
e 6 29
e 6 30
e 6 31
e 6 32
e 6 34
e 6 35
e 6 38
e 6 39
e 6 42
e 6 43
e 6 48
e 6 51
e 6 53
e 6 56
e 6 58
e 6 63
e 6 70
e 6 71
e 6 73
e 6 76
e 6 77
e 6 78
e 6 79
e 6 81
e 6 82
e 6 83
e 6 84
e 6 85
e 6 86
e 6 90
e 6 91
e 6 93
e 6 94
e 6 95
e 6 99
e 6 101
e 6 103
e 6 104
e 6 110
e 7 8
e 7 11
e 7 12
e 7 14
e 7 15
e 7 16
e 7 18
e 7 20
e 7 21
e 7 23
e 7 27
e 7 28
e 7 29
e 7 30
e 7 32
e 7 33
e 7 34
e 7 35
e 7 36
e 7 38
e 7 41
e 7 45
e 7 47
e 7 48
e 7 49
e 7 51
e 7 52
e 7 56
e 7 58
e 7 59
e 7 60
e 7 61
e 7 63
e 7 65
e 7 66
e 7 67
e 7 72
e 7 73
e 7 75
e 7 76
e 7 77
e 7 80
e 7 83
e 7 85
e 7 87
e 7 88
e 7 91
e 7 92
e 7 93
e 7 95
e 7 96
e 7 97
e 7 98
e 7 103
e 7 105
e 7 106
e 7 108
e 7 109
e 8 9
e 8 10
e 8 13
e 8 15
e 8 16
e 8 18
e 8 19
e 8 22
e 8 23
e 8 25
e 8 29
e 8 30
e 8 31
e 8 36
e 8 37
e 8 40
e 8 44
e 8 45
e 8 47
e 8 50
e 8 53
e 8 54
e 8 56
e 8 58
e 8 62
e 8 64
e 8 65
e 8 67
e 8 72
e 8 73
e 8 74
e 8 75
e 8 78
e 8 85
e 8 86
e 8 92
e 8 94
e 8 95
e 8 96
e 8 97
e 8 98
e 8 99
e 8 104
e 8 108
e 8 110
e 9 11
e 9 12
e 9 13
e 9 14
e 9 19
e 9 20
e 9 21
e 9 23
e 9 25
e 9 26
e 9 28
e 9 29
e 9 32
e 9 33
e 9 35
e 9 36
e 9 37
e 9 38
e 9 41
e 9 43
e 9 44
e 9 49
e 9 51
e 9 52
e 9 53
e 9 54
e 9 55
e 9 56
e 9 58
e 9 59
e 9 63
e 9 64
e 9 65
e 9 68
e 9 69
e 9 70
e 9 74
e 9 76
e 9 77
e 9 78
e 9 80
e 9 82
e 9 91
e 9 92
e 9 95
e 9 100
e 9 101
e 9 103
e 9 106
e 9 109
e 9 110
e 10 12
e 10 13
e 10 17
e 10 19
e 10 20
e 10 21
e 10 22
e 10 27
e 10 29
e 10 32
e 10 33
e 10 34
e 10 39
e 10 42
e 10 43
e 10 45
e 10 46
e 10 49
e 10 50
e 10 54
e 10 58
e 10 59
e 10 60
e 10 62
e 10 64
e 10 65
e 10 66
e 10 68
e 10 70
e 10 71
e 10 72
e 10 75
e 10 77
e 10 80
e 10 84
e 10 85
e 10 88
e 10 90
e 10 92
e 10 93
e 10 94
e 10 106
e 10 109
e 11 13
e 11 16
e 11 17
e 11 18
e 11 19
e 11 21
e 11 32
e 11 34
e 11 35
e 11 37
e 11 38
e 11 39
e 11 40
e 11 48
e 11 49
e 11 50
e 11 51
e 11 52
e 11 53
e 11 56
e 11 62
e 11 63
e 11 65
e 11 67
e 11 71
e 11 73
e 11 74
e 11 79
e 11 80
e 11 82
e 11 84
e 11 85
e 11 87
e 11 88
e 11 89
e 11 90
e 11 92
e 11 93
e 11 95
e 11 98
e 11 105
e 11 106
e 11 107
e 11 108
e 11 109
e 11 110
e 12 14
e 12 15
e 12 18
e 12 21
e 12 23
e 12 27
e 12 28
e 12 29
e 12 30
e 12 31
e 12 32
e 12 34
e 12 36
e 12 37
e 12 40
e 12 41
e 12 42
e 12 46
e 12 48
e 12 50
e 12 51
e 12 52
e 12 53
e 12 55
e 12 57
e 12 58
e 12 59
e 12 60
e 12 63
e 12 65
e 12 67
e 12 69
e 12 70
e 12 71
e 12 73
e 12 78
e 12 79
e 12 80
e 12 81
e 12 83
e 12 84
e 12 85
e 12 86
e 12 87
e 12 88
e 12 89
e 12 93
e 12 95
e 12 96
e 12 100
e 12 103
e 12 104
e 12 105
e 12 106
e 12 108
e 12 110
e 13 14
e 13 17
e 13 20
e 13 26
e 13 28
e 13 30
e 13 31
e 13 32
e 13 33
e 13 34
e 13 35
e 13 36
e 13 39
e 13 40
e 13 41
e 13 42
e 13 45
e 13 46
e 13 47
e 13 48
e 13 49
e 13 50
e 13 53
e 13 58
e 13 61
e 13 62
e 13 63
e 13 66
e 13 67
e 13 68
e 13 69
e 13 70
e 13 72
e 13 74
e 13 75
e 13 76
e 13 77
e 13 78
e 13 80
e 13 81
e 13 82
e 13 83
e 13 86
e 13 89
e 13 90
e 13 92
e 13 94
e 13 95
e 13 96
e 13 97
e 13 99
e 13 100
e 13 101
e 13 106
e 13 109
e 14 15
e 14 20
e 14 21
e 14 22
e 14 23
e 14 26
e 14 30
e 14 32
e 14 34
e 14 37
e 14 39
e 14 42
e 14 43
e 14 44
e 14 45
e 14 46
e 14 47
e 14 48
e 14 49
e 14 50
e 14 52
e 14 53
e 14 54
e 14 55
e 14 57
e 14 58
e 14 59
e 14 61
e 14 62
e 14 64
e 14 65
e 14 66
e 14 67
e 14 68
e 14 69
e 14 71
e 14 72
e 14 73
e 14 74
e 14 76
e 14 77
e 14 80
e 14 81
e 14 84
e 14 87
e 14 88
e 14 89
e 14 90
e 14 91
e 14 92
e 14 96
e 14 98
e 14 105
e 14 106
e 14 109
e 14 110
e 15 16
e 15 17
e 15 18
e 15 19
e 15 21
e 15 24
e 15 25
e 15 26
e 15 31
e 15 32
e 15 33
e 15 35
e 15 36
e 15 38
e 15 39
e 15 42
e 15 43
e 15 44
e 15 45
e 15 46
e 15 47
e 15 48
e 15 51
e 15 54
e 15 57
e 15 60
e 15 63
e 15 66
e 15 68
e 15 69
e 15 70
e 15 74
e 15 78
e 15 79
e 15 80
e 15 82
e 15 85
e 15 86
e 15 87
e 15 88
e 15 89
e 15 90
e 15 94
e 15 96
e 15 97
e 15 98
e 15 99
e 15 100
e 15 101
e 15 102
e 15 104
e 15 105
e 15 106
e 15 108
e 16 17
e 16 19
e 16 22
e 16 25
e 16 26
e 16 29
e 16 36
e 16 37
e 16 38
e 16 40
e 16 41
e 16 42
e 16 44
e 16 46
e 16 52
e 16 58
e 16 60
e 16 61
e 16 64
e 16 66
e 16 74
e 16 76
e 16 78
e 16 81
e 16 94
e 16 97
e 16 100
e 16 101
e 16 102
e 16 103
e 16 104
e 16 105
e 16 106
e 16 108
e 17 23
e 17 25
e 17 28
e 17 31
e 17 32
e 17 33
e 17 34
e 17 35
e 17 38
e 17 39
e 17 40
e 17 41
e 17 44
e 17 46
e 17 47
e 17 49
e 17 50
e 17 51
e 17 52
e 17 53
e 17 56
e 17 58
e 17 59
e 17 60
e 17 61
e 17 63
e 17 64
e 17 72
e 17 73
e 17 78
e 17 79
e 17 80
e 17 82
e 17 91
e 17 101
e 17 103
e 17 104
e 17 105
e 17 109
e 18 19
e 18 20
e 18 22
e 18 24
e 18 27
e 18 29
e 18 31
e 18 32
e 18 36
e 18 37
e 18 38
e 18 40
e 18 42
e 18 47
e 18 50
e 18 52
e 18 53
e 18 54
e 18 55
e 18 56
e 18 57
e 18 58
e 18 59
e 18 60
e 18 62
e 18 66
e 18 67
e 18 68
e 18 69
e 18 71
e 18 74
e 18 75
e 18 76
e 18 78
e 18 79
e 18 85
e 18 86
e 18 89
e 18 90
e 18 93
e 18 95
e 18 98
e 18 100
e 18 103
e 18 104
e 18 107
e 18 108
e 18 110
e 19 21
e 19 23
e 19 25
e 19 26
e 19 27
e 19 30
e 19 31
e 19 32
e 19 33
e 19 34
e 19 35
e 19 36
e 19 37
e 19 38
e 19 40
e 19 41
e 19 43
e 19 46
e 19 50
e 19 51
e 19 52
e 19 53
e 19 56
e 19 57
e 19 60
e 19 61
e 19 62
e 19 63
e 19 64
e 19 69
e 19 71
e 19 72
e 19 74
e 19 75
e 19 76
e 19 79
e 19 82
e 19 83
e 19 88
e 19 89
e 19 93
e 19 94
e 19 95
e 19 96
e 19 98
e 19 99
e 19 101
e 19 102
e 19 104
e 19 105
e 19 106
e 19 110
e 20 21
e 20 24
e 20 26
e 20 27
e 20 28
e 20 29
e 20 32
e 20 36
e 20 37
e 20 38
e 20 39
e 20 40
e 20 41
e 20 42
e 20 43
e 20 44
e 20 45
e 20 49
e 20 50
e 20 55
e 20 58
e 20 61
e 20 63
e 20 64
e 20 66
e 20 71
e 20 72
e 20 73
e 20 74
e 20 75
e 20 76
e 20 77
e 20 78
e 20 80
e 20 83
e 20 86
e 20 88
e 20 90
e 20 92
e 20 93
e 20 94
e 20 95
e 20 98
e 20 101
e 20 102
e 20 103
e 20 104
e 20 105
e 20 106
e 20 107
e 20 108
e 20 109
e 20 110
e 21 24
e 21 26
e 21 27
e 21 28
e 21 31
e 21 32
e 21 34
e 21 35
e 21 37
e 21 38
e 21 39
e 21 42
e 21 45
e 21 46
e 21 47
e 21 48
e 21 51
e 21 52
e 21 55
e 21 57
e 21 58
e 21 60
e 21 62
e 21 63
e 21 65
e 21 74
e 21 75
e 21 77
e 21 78
e 21 81
e 21 84
e 21 85
e 21 90
e 21 93
e 21 97
e 21 98
e 21 99
e 21 100
e 21 101
e 21 102
e 21 103
e 21 106
e 21 107
e 21 108
e 22 28
e 22 31
e 22 32
e 22 34
e 22 36
e 22 38
e 22 40
e 22 43
e 22 45
e 22 49
e 22 50
e 22 51
e 22 52
e 22 53
e 22 54
e 22 55
e 22 61
e 22 64
e 22 66
e 22 67
e 22 70
e 22 72
e 22 73
e 22 76
e 22 77
e 22 78
e 22 79
e 22 80
e 22 81
e 22 83
e 22 84
e 22 85
e 22 86
e 22 87
e 22 89
e 22 90
e 22 93
e 22 100
e 22 101
e 22 103
e 22 104
e 22 105
e 22 107
e 22 110
e 23 24
e 23 26
e 23 28
e 23 31
e 23 32
e 23 33
e 23 35
e 23 36
e 23 37
e 23 38
e 23 40
e 23 41
e 23 43
e 23 44
e 23 45
e 23 46
e 23 47
e 23 53
e 23 55
e 23 57
e 23 58
e 23 60
e 23 61
e 23 62
e 23 63
e 23 66
e 23 69
e 23 73
e 23 74
e 23 76
e 23 77
e 23 78
e 23 79
e 23 80
e 23 83
e 23 84
e 23 85
e 23 86
e 23 90
e 23 92
e 23 93
e 23 95
e 23 96
e 23 98
e 23 99
e 23 100
e 23 101
e 23 102
e 23 103
e 23 104
e 24 25
e 24 26
e 24 27
e 24 28
e 24 31
e 24 33
e 24 34
e 24 35
e 24 37
e 24 43
e 24 47
e 24 49
e 24 52
e 24 53
e 24 55
e 24 58
e 24 61
e 24 63
e 24 64
e 24 65
e 24 66
e 24 67
e 24 68
e 24 70
e 24 72
e 24 75
e 24 76
e 24 78
e 24 79
e 24 80
e 24 81
e 24 83
e 24 85
e 24 86
e 24 88
e 24 89
e 24 90
e 24 91
e 24 92
e 24 94
e 24 95
e 24 99
e 24 100
e 24 106
e 24 108
e 24 110
e 25 26
e 25 27
e 25 28
e 25 29
e 25 30
e 25 33
e 25 34
e 25 42
e 25 43
e 25 45
e 25 46
e 25 48
e 25 49
e 25 52
e 25 53
e 25 57
e 25 58
e 25 59
e 25 60
e 25 61
e 25 62
e 25 63
e 25 65
e 25 67
e 25 69
e 25 70
e 25 72
e 25 73
e 25 74
e 25 75
e 25 77
e 25 79
e 25 80
e 25 82
e 25 83
e 25 86
e 25 87
e 25 95
e 25 96
e 25 99
e 25 100
e 25 101
e 25 105
e 25 106
e 25 108
e 25 110
e 26 29
e 26 31
e 26 32
e 26 33
e 26 35
e 26 36
e 26 37
e 26 44
e 26 45
e 26 47
e 26 48
e 26 51
e 26 53
e 26 56
e 26 57
e 26 59
e 26 60
e 26 61
e 26 62
e 26 63
e 26 65
e 26 70
e 26 73
e 26 76
e 26 77
e 26 78
e 26 80
e 26 81
e 26 84
e 26 85
e 26 87
e 26 88
e 26 89
e 26 90
e 26 91
e 26 93
e 26 97
e 26 98
e 26 100
e 26 101
e 26 104
e 26 106
e 26 108
e 26 109
e 26 110
e 27 31
e 27 32
e 27 36
e 27 37
e 27 40
e 27 46
e 27 48
e 27 49
e 27 53
e 27 54
e 27 55
e 27 58
e 27 63
e 27 67
e 27 68
e 27 71
e 27 72
e 27 73
e 27 74
e 27 76
e 27 77
e 27 79
e 27 82
e 27 83
e 27 84
e 27 86
e 27 87
e 27 90
e 27 91
e 27 94
e 27 96
e 27 97
e 27 100
e 27 101
e 27 102
e 27 106
e 27 107
e 27 108
e 27 110
e 28 30
e 28 32
e 28 34
e 28 35
e 28 37
e 28 39
e 28 41
e 28 45
e 28 47
e 28 48
e 28 51
e 28 53
e 28 54
e 28 57
e 28 59
e 28 60
e 28 61
e 28 63
e 28 65
e 28 67
e 28 68
e 28 69
e 28 70
e 28 72
e 28 75
e 28 76
e 28 80
e 28 82
e 28 83
e 28 85
e 28 86
e 28 88
e 28 90
e 28 92
e 28 95
e 28 96
e 28 97
e 28 99
e 28 101
e 28 102
e 28 105
e 28 106
e 28 108
e 29 31
e 29 34
e 29 36
e 29 37
e 29 38
e 29 41
e 29 42
e 29 46
e 29 47
e 29 49
e 29 50
e 29 53
e 29 57
e 29 58
e 29 60
e 29 62
e 29 65
e 29 66
e 29 68
e 29 69
e 29 71
e 29 72
e 29 74
e 29 75
e 29 76
e 29 80
e 29 82
e 29 83
e 29 84
e 29 86
e 29 87
e 29 88
e 29 89
e 29 92
e 29 94
e 29 96
e 29 99
e 29 104
e 29 105
e 29 107
e 29 109
e 30 32
e 30 33
e 30 34
e 30 38
e 30 39
e 30 40
e 30 42
e 30 43
e 30 44
e 30 45
e 30 47
e 30 50
e 30 51
e 30 53
e 30 54
e 30 55
e 30 56
e 30 57
e 30 59
e 30 64
e 30 66
e 30 76
e 30 78
e 30 79
e 30 80
e 30 84
e 30 85
e 30 86
e 30 87
e 30 89
e 30 91
e 30 92
e 30 93
e 30 94
e 30 95
e 30 98
e 30 99
e 30 102
e 30 103
e 30 106
e 30 108
e 30 109
e 30 110
e 31 32
e 31 34
e 31 35
e 31 39
e 31 43
e 31 46
e 31 47
e 31 48
e 31 55
e 31 57
e 31 59
e 31 60
e 31 61
e 31 63
e 31 64
e 31 66
e 31 68
e 31 70
e 31 71
e 31 72
e 31 73
e 31 74
e 31 75
e 31 79
e 31 83
e 31 85
e 31 86
e 31 87
e 31 89
e 31 91
e 31 92
e 31 94
e 31 96
e 31 103
e 31 106
e 31 107
e 31 110
e 32 35
e 32 36
e 32 38
e 32 39
e 32 41
e 32 42
e 32 43
e 32 47
e 32 48
e 32 50
e 32 52
e 32 53
e 32 56
e 32 62
e 32 63
e 32 64
e 32 67
e 32 68
e 32 70
e 32 71
e 32 73
e 32 76
e 32 77
e 32 78
e 32 82
e 32 83
e 32 84
e 32 85
e 32 86
e 32 87
e 32 88
e 32 90
e 32 92
e 32 93
e 32 95
e 32 97
e 32 98
e 32 99
e 32 100
e 32 102
e 32 107
e 32 108
e 33 36
e 33 37
e 33 39
e 33 42
e 33 49
e 33 50
e 33 51
e 33 56
e 33 60
e 33 61
e 33 63
e 33 64
e 33 67
e 33 68
e 33 69
e 33 73
e 33 74
e 33 78
e 33 81
e 33 84
e 33 85
e 33 86
e 33 87
e 33 88
e 33 91
e 33 92
e 33 93
e 33 96
e 33 97
e 33 99
e 33 101
e 33 102
e 33 105
e 33 110
e 34 35
e 34 36
e 34 38
e 34 39
e 34 40
e 34 42
e 34 45
e 34 46
e 34 47
e 34 50
e 34 52
e 34 53
e 34 54
e 34 55
e 34 56
e 34 57
e 34 60
e 34 61
e 34 62
e 34 65
e 34 66
e 34 71
e 34 74
e 34 75
e 34 76
e 34 77
e 34 79
e 34 81
e 34 82
e 34 85
e 34 88
e 34 89
e 34 90
e 34 93
e 34 94
e 34 96
e 34 98
e 34 99
e 34 101
e 34 102
e 34 103
e 34 104
e 34 105
e 34 108
e 34 109
e 34 110
e 35 36
e 35 37
e 35 39
e 35 40
e 35 41
e 35 45
e 35 47
e 35 49
e 35 50
e 35 52
e 35 53
e 35 54
e 35 55
e 35 57
e 35 58
e 35 59
e 35 60
e 35 63
e 35 64
e 35 65
e 35 66
e 35 69
e 35 71
e 35 72
e 35 73
e 35 74
e 35 78
e 35 82
e 35 85
e 35 87
e 35 91
e 35 92
e 35 94
e 35 96
e 35 98
e 35 100
e 35 101
e 35 104
e 35 105
e 35 106
e 35 108
e 35 110
e 36 38
e 36 41
e 36 42
e 36 45
e 36 46
e 36 47
e 36 48
e 36 50
e 36 52
e 36 53
e 36 54
e 36 55
e 36 56
e 36 57
e 36 59
e 36 63
e 36 64
e 36 68
e 36 71
e 36 72
e 36 74
e 36 75
e 36 76
e 36 78
e 36 79
e 36 80
e 36 82
e 36 83
e 36 85
e 36 86
e 36 87
e 36 88
e 36 90
e 36 95
e 36 96
e 36 100
e 36 103
e 36 104
e 36 105
e 36 106
e 36 107
e 36 108
e 37 38
e 37 39
e 37 40
e 37 41
e 37 43
e 37 49
e 37 50
e 37 55
e 37 56
e 37 57
e 37 58
e 37 61
e 37 62
e 37 64
e 37 66
e 37 68
e 37 69
e 37 70
e 37 73
e 37 75
e 37 78
e 37 80
e 37 83
e 37 85
e 37 86
e 37 89
e 37 90
e 37 94
e 37 96
e 37 99
e 37 100
e 37 104
e 37 106
e 37 109
e 38 39
e 38 41
e 38 42
e 38 43
e 38 46
e 38 48
e 38 49
e 38 52
e 38 53
e 38 55
e 38 56
e 38 58
e 38 60
e 38 61
e 38 62
e 38 63
e 38 66
e 38 68
e 38 69
e 38 74
e 38 75
e 38 77
e 38 78
e 38 83
e 38 84
e 38 85
e 38 91
e 38 94
e 38 95
e 38 96
e 38 99
e 38 103
e 38 106
e 38 107
e 38 108
e 39 40
e 39 45
e 39 48
e 39 50
e 39 51
e 39 52
e 39 53
e 39 56
e 39 58
e 39 59
e 39 61
e 39 62
e 39 69
e 39 71
e 39 72
e 39 74
e 39 77
e 39 78
e 39 81
e 39 87
e 39 89
e 39 91
e 39 93
e 39 94
e 39 95
e 39 98
e 39 99
e 39 100
e 39 101
e 39 104
e 39 106
e 39 107
e 39 108
e 40 41
e 40 42
e 40 43
e 40 44
e 40 45
e 40 47
e 40 49
e 40 50
e 40 51
e 40 54
e 40 55
e 40 56
e 40 58
e 40 60
e 40 61
e 40 62
e 40 63
e 40 64
e 40 65
e 40 66
e 40 68
e 40 71
e 40 72
e 40 73
e 40 74
e 40 78
e 40 79
e 40 81
e 40 82
e 40 83
e 40 84
e 40 85
e 40 86
e 40 87
e 40 89
e 40 90
e 40 91
e 40 92
e 40 94
e 40 98
e 40 100
e 40 101
e 40 103
e 40 104
e 40 105
e 40 106
e 40 108
e 40 110
e 41 44
e 41 46
e 41 47
e 41 50
e 41 51
e 41 53
e 41 54
e 41 55
e 41 56
e 41 57
e 41 58
e 41 60
e 41 61
e 41 62
e 41 66
e 41 68
e 41 70
e 41 72
e 41 75
e 41 76
e 41 77
e 41 78
e 41 82
e 41 83
e 41 84
e 41 85
e 41 89
e 41 90
e 41 91
e 41 92
e 41 96
e 41 97
e 41 99
e 41 101
e 41 102
e 41 103
e 41 105
e 41 106
e 41 110
e 42 45
e 42 46
e 42 47
e 42 49
e 42 50
e 42 52
e 42 54
e 42 56
e 42 57
e 42 58
e 42 59
e 42 60
e 42 63
e 42 64
e 42 65
e 42 66
e 42 67
e 42 69
e 42 70
e 42 72
e 42 73
e 42 75
e 42 79
e 42 81
e 42 82
e 42 84
e 42 85
e 42 89
e 42 90
e 42 91
e 42 92
e 42 94
e 42 95
e 42 98
e 42 99
e 42 105
e 42 106
e 42 107
e 42 109
e 43 44
e 43 45
e 43 47
e 43 49
e 43 50
e 43 53
e 43 61
e 43 64
e 43 65
e 43 67
e 43 68
e 43 71
e 43 72
e 43 76
e 43 77
e 43 79
e 43 83
e 43 86
e 43 88
e 43 89
e 43 93
e 43 97
e 43 99
e 43 100
e 43 101
e 43 102
e 43 104
e 43 105
e 43 106
e 43 107
e 43 108
e 43 109
e 43 110
e 44 45
e 44 50
e 44 51
e 44 53
e 44 54
e 44 58
e 44 59
e 44 61
e 44 62
e 44 64
e 44 66
e 44 69
e 44 73
e 44 75
e 44 79
e 44 80
e 44 81
e 44 82
e 44 87
e 44 88
e 44 91
e 44 92
e 44 98
e 44 99
e 44 100
e 44 101
e 44 103
e 44 104
e 44 105
e 44 108
e 45 46
e 45 48
e 45 49
e 45 52
e 45 54
e 45 55
e 45 57
e 45 59
e 45 60
e 45 61
e 45 62
e 45 65
e 45 66
e 45 67
e 45 68
e 45 69
e 45 71
e 45 72
e 45 74
e 45 75
e 45 77
e 45 81
e 45 82
e 45 83
e 45 84
e 45 86
e 45 87
e 45 90
e 45 92
e 45 95
e 45 97
e 45 98
e 45 99
e 45 100
e 45 103
e 45 104
e 45 105
e 45 107
e 45 110
e 46 47
e 46 48
e 46 49
e 46 51
e 46 56
e 46 57
e 46 59
e 46 60
e 46 61
e 46 64
e 46 65
e 46 66
e 46 67
e 46 68
e 46 70
e 46 73
e 46 74
e 46 77
e 46 78
e 46 79
e 46 83
e 46 88
e 46 91
e 46 92
e 46 95
e 46 106
e 47 48
e 47 49
e 47 51
e 47 52
e 47 53
e 47 54
e 47 56
e 47 58
e 47 60
e 47 62
e 47 67
e 47 68
e 47 69
e 47 70
e 47 71
e 47 72
e 47 73
e 47 74
e 47 76
e 47 78
e 47 79
e 47 80
e 47 81
e 47 83
e 47 85
e 47 87
e 47 90
e 47 91
e 47 92
e 47 93
e 47 95
e 47 100
e 47 102
e 47 104
e 47 105
e 47 107
e 47 110
e 48 51
e 48 58
e 48 59
e 48 60
e 48 61
e 48 62
e 48 63
e 48 64
e 48 65
e 48 70
e 48 73
e 48 75
e 48 78
e 48 85
e 48 86
e 48 88
e 48 90
e 48 91
e 48 95
e 48 100
e 48 102
e 48 103
e 48 107
e 48 109
e 48 110
e 49 51
e 49 52
e 49 55
e 49 56
e 49 57
e 49 58
e 49 61
e 49 62
e 49 64
e 49 66
e 49 69
e 49 71
e 49 75
e 49 76
e 49 77
e 49 78
e 49 80
e 49 81
e 49 82
e 49 87
e 49 92
e 49 96
e 49 98
e 49 100
e 49 103
e 49 105
e 49 108
e 49 109
e 49 110
e 50 51
e 50 52
e 50 54
e 50 57
e 50 58
e 50 59
e 50 60
e 50 62
e 50 64
e 50 65
e 50 66
e 50 68
e 50 71
e 50 73
e 50 74
e 50 75
e 50 76
e 50 78
e 50 79
e 50 80
e 50 81
e 50 82
e 50 83
e 50 84
e 50 86
e 50 89
e 50 90
e 50 92
e 50 94
e 50 95
e 50 96
e 50 97
e 50 99
e 50 100
e 50 101
e 50 102
e 50 105
e 50 106
e 50 108
e 50 109
e 51 54
e 51 57
e 51 58
e 51 59
e 51 60
e 51 61
e 51 62
e 51 64
e 51 65
e 51 66
e 51 67
e 51 68
e 51 69
e 51 71
e 51 74
e 51 75
e 51 77
e 51 78
e 51 79
e 51 81
e 51 83
e 51 85
e 51 88
e 51 90
e 51 92
e 51 93
e 51 94
e 51 95
e 51 97
e 51 98
e 51 100
e 51 104
e 51 105
e 51 106
e 51 108
e 51 110
e 52 53
e 52 54
e 52 55
e 52 59
e 52 60
e 52 61
e 52 62
e 52 63
e 52 64
e 52 68
e 52 73
e 52 74
e 52 75
e 52 76
e 52 77
e 52 80
e 52 81
e 52 82
e 52 83
e 52 88
e 52 89
e 52 90
e 52 91
e 52 98
e 52 99
e 52 105
e 52 108
e 52 109
e 53 54
e 53 56
e 53 57
e 53 58
e 53 60
e 53 65
e 53 67
e 53 68
e 53 69
e 53 70
e 53 72
e 53 74
e 53 75
e 53 77
e 53 79
e 53 82
e 53 83
e 53 84
e 53 87
e 53 88
e 53 90
e 53 91
e 53 92
e 53 94
e 53 96
e 53 99
e 53 101
e 53 102
e 53 109
e 54 55
e 54 56
e 54 57
e 54 58
e 54 61
e 54 65
e 54 66
e 54 68
e 54 69
e 54 70
e 54 71
e 54 72
e 54 75
e 54 76
e 54 77
e 54 78
e 54 80
e 54 82
e 54 83
e 54 84
e 54 86
e 54 87
e 54 88
e 54 89
e 54 90
e 54 91
e 54 95
e 54 97
e 54 98
e 54 100
e 54 101
e 54 102
e 54 103
e 54 104
e 54 106
e 55 57
e 55 58
e 55 60
e 55 61
e 55 63
e 55 64
e 55 65
e 55 66
e 55 69
e 55 73
e 55 74
e 55 75
e 55 77
e 55 79
e 55 80
e 55 81
e 55 82
e 55 85
e 55 86
e 55 90
e 55 91
e 55 94
e 55 95
e 55 100
e 55 104
e 55 105
e 55 106
e 55 107
e 55 109
e 56 57
e 56 59
e 56 60
e 56 62
e 56 64
e 56 65
e 56 66
e 56 67
e 56 68
e 56 70
e 56 72
e 56 73
e 56 74
e 56 76
e 56 77
e 56 79
e 56 81
e 56 89
e 56 91
e 56 97
e 56 99
e 56 100
e 56 101
e 56 105
e 56 110
e 57 60
e 57 61
e 57 63
e 57 65
e 57 66
e 57 67
e 57 69
e 57 70
e 57 71
e 57 73
e 57 74
e 57 75
e 57 77
e 57 78
e 57 79
e 57 80
e 57 81
e 57 84
e 57 85
e 57 87
e 57 88
e 57 89
e 57 90
e 57 92
e 57 93
e 57 94
e 57 95
e 57 98
e 57 99
e 57 101
e 57 104
e 57 105
e 57 107
e 57 108
e 57 109
e 57 110
e 58 59
e 58 60
e 58 61
e 58 62
e 58 63
e 58 64
e 58 69
e 58 75
e 58 80
e 58 86
e 58 87
e 58 88
e 58 90
e 58 91
e 58 92
e 58 96
e 58 97
e 58 100
e 58 101
e 58 102
e 58 107
e 59 60
e 59 61
e 59 62
e 59 63
e 59 65
e 59 66
e 59 69
e 59 71
e 59 73
e 59 78
e 59 83
e 59 84
e 59 86
e 59 88
e 59 89
e 59 91
e 59 92
e 59 94
e 59 95
e 59 96
e 59 97
e 59 98
e 59 101
e 59 106
e 59 108
e 60 62
e 60 66
e 60 67
e 60 68
e 60 70
e 60 74
e 60 76
e 60 79
e 60 81
e 60 84
e 60 89
e 60 90
e 60 91
e 60 92
e 60 93
e 60 101
e 60 102
e 60 107
e 60 109
e 61 63
e 61 64
e 61 71
e 61 73
e 61 75
e 61 76
e 61 80
e 61 81
e 61 82
e 61 83
e 61 86
e 61 87
e 61 90
e 61 91
e 61 94
e 61 103
e 61 104
e 61 105
e 61 107
e 61 108
e 61 110
e 62 64
e 62 65
e 62 66
e 62 68
e 62 69
e 62 70
e 62 71
e 62 73
e 62 78
e 62 80
e 62 82
e 62 85
e 62 87
e 62 88
e 62 89
e 62 90
e 62 91
e 62 92
e 62 98
e 62 100
e 62 101
e 62 103
e 62 105
e 62 109
e 63 64
e 63 72
e 63 73
e 63 74
e 63 75
e 63 76
e 63 77
e 63 78
e 63 80
e 63 83
e 63 84
e 63 92
e 63 96
e 63 99
e 63 105
e 64 65
e 64 67
e 64 70
e 64 71
e 64 73
e 64 74
e 64 75
e 64 77
e 64 78
e 64 79
e 64 81
e 64 82
e 64 83
e 64 84
e 64 86
e 64 87
e 64 88
e 64 89
e 64 90
e 64 93
e 64 95
e 64 102
e 64 105
e 64 108
e 64 109
e 64 110
e 65 66
e 65 67
e 65 68
e 65 69
e 65 71
e 65 73
e 65 77
e 65 79
e 65 81
e 65 82
e 65 83
e 65 85
e 65 87
e 65 88
e 65 91
e 65 92
e 65 94
e 65 95
e 65 98
e 65 99
e 65 100
e 65 103
e 65 109
e 65 110
e 66 68
e 66 69
e 66 70
e 66 75
e 66 76
e 66 79
e 66 83
e 66 84
e 66 89
e 66 91
e 66 92
e 66 93
e 66 95
e 66 99
e 66 103
e 66 104
e 66 105
e 66 106
e 66 108
e 66 109
e 66 110
e 67 68
e 67 69
e 67 70
e 67 71
e 67 72
e 67 73
e 67 74
e 67 78
e 67 80
e 67 81
e 67 83
e 67 84
e 67 86
e 67 87
e 67 90
e 67 91
e 67 92
e 67 95
e 67 96
e 67 97
e 67 99
e 67 102
e 67 103
e 67 106
e 67 108
e 67 109
e 67 110
e 68 70
e 68 74
e 68 77
e 68 78
e 68 79
e 68 83
e 68 84
e 68 86
e 68 89
e 68 90
e 68 94
e 68 96
e 68 97
e 68 99
e 68 100
e 68 101
e 68 105
e 68 107
e 68 108
e 68 109
e 69 70
e 69 71
e 69 74
e 69 78
e 69 81
e 69 84
e 69 89
e 69 92
e 69 93
e 69 97
e 69 99
e 69 100
e 69 101
e 69 104
e 69 105
e 69 106
e 69 107
e 70 75
e 70 78
e 70 79
e 70 90
e 70 91
e 70 92
e 70 97
e 70 105
e 70 107
e 71 72
e 71 77
e 71 81
e 71 82
e 71 83
e 71 84
e 71 86
e 71 90
e 71 92
e 71 98
e 71 99
e 71 102
e 71 104
e 71 106
e 71 107
e 71 108
e 71 109
e 71 110
e 72 73
e 72 75
e 72 76
e 72 78
e 72 79
e 72 80
e 72 85
e 72 90
e 72 93
e 72 95
e 72 96
e 72 100
e 72 103
e 72 104
e 72 105
e 72 106
e 72 107
e 72 109
e 72 110
e 73 74
e 73 75
e 73 76
e 73 77
e 73 79
e 73 80
e 73 81
e 73 82
e 73 84
e 73 86
e 73 88
e 73 90
e 73 91
e 73 94
e 73 97
e 73 99
e 73 100
e 73 101
e 73 103
e 73 104
e 73 105
e 73 107
e 73 108
e 73 109
e 73 110
e 74 75
e 74 78
e 74 82
e 74 83
e 74 86
e 74 87
e 74 88
e 74 89
e 74 95
e 74 96
e 74 98
e 74 100
e 74 101
e 74 102
e 74 103
e 74 107
e 74 110
e 75 76
e 75 77
e 75 80
e 75 84
e 75 86
e 75 88
e 75 92
e 75 93
e 75 94
e 75 95
e 75 97
e 75 99
e 75 101
e 75 104
e 75 106
e 75 108
e 75 109
e 75 110
e 76 78
e 76 79
e 76 81
e 76 82
e 76 83
e 76 84
e 76 86
e 76 87
e 76 89
e 76 94
e 76 95
e 76 96
e 76 97
e 76 98
e 76 100
e 76 104
e 76 105
e 76 107
e 76 108
e 76 109
e 77 81
e 77 84
e 77 85
e 77 87
e 77 88
e 77 89
e 77 93
e 77 94
e 77 96
e 77 99
e 77 101
e 77 102
e 77 103
e 77 104
e 77 105
e 77 107
e 77 108
e 77 110
e 78 81
e 78 85
e 78 86
e 78 88
e 78 91
e 78 95
e 78 96
e 78 99
e 78 104
e 78 106
e 78 108
e 78 109
e 79 80
e 79 82
e 79 83
e 79 84
e 79 88
e 79 90
e 79 91
e 79 92
e 79 95
e 79 99
e 79 100
e 79 107
e 79 108
e 79 110
e 80 81
e 80 84
e 80 87
e 80 90
e 80 94
e 80 96
e 80 99
e 80 100
e 80 101
e 80 102
e 80 107
e 81 82
e 81 83
e 81 85
e 81 87
e 81 88
e 81 89
e 81 92
e 81 93
e 81 95
e 81 98
e 81 99
e 81 100
e 81 101
e 81 102
e 81 104
e 81 105
e 81 106
e 81 107
e 81 109
e 81 110
e 82 85
e 82 88
e 82 91
e 82 92
e 82 93
e 82 96
e 82 97
e 82 98
e 82 100
e 82 103
e 82 105
e 82 106
e 82 107
e 82 108
e 82 110
e 83 84
e 83 85
e 83 86
e 83 87
e 83 92
e 83 93
e 83 96
e 83 97
e 83 98
e 83 99
e 83 101
e 83 103
e 83 104
e 83 106
e 83 108
e 84 85
e 84 90
e 84 98
e 84 99
e 84 102
e 84 103
e 84 104
e 84 105
e 84 107
e 84 108
e 84 109
e 84 110
e 85 88
e 85 92
e 85 93
e 85 95
e 85 96
e 85 97
e 85 99
e 85 101
e 85 103
e 85 105
e 85 106
e 85 109
e 86 87
e 86 89
e 86 90
e 86 93
e 86 97
e 86 101
e 86 102
e 86 103
e 86 105
e 86 108
e 87 88
e 87 89
e 87 90
e 87 91
e 87 92
e 87 93
e 87 96
e 87 101
e 87 103
e 87 104
e 87 105
e 87 106
e 87 108
e 88 90
e 88 101
e 88 102
e 88 104
e 88 105
e 88 107
e 88 109
e 89 90
e 89 92
e 89 93
e 89 94
e 89 95
e 89 96
e 89 97
e 89 99
e 89 103
e 89 105
e 89 108
e 89 110
e 90 91
e 90 93
e 90 96
e 90 97
e 90 98
e 90 101
e 90 102
e 90 103
e 90 104
e 90 105
e 90 107
e 91 92
e 91 94
e 91 100
e 91 102
e 91 109
e 92 96
e 92 100
e 92 101
e 92 102
e 92 104
e 92 108
e 93 96
e 93 97
e 93 101
e 93 102
e 93 103
e 93 107
e 93 108
e 93 110
e 94 95
e 94 97
e 94 100
e 94 104
e 94 108
e 94 109
e 95 97
e 95 98
e 95 99
e 95 101
e 95 103
e 95 104
e 95 108
e 96 101
e 96 102
e 96 103
e 96 104
e 96 109
e 96 110
e 97 98
e 97 101
e 97 105
e 97 106
e 97 108
e 98 99
e 98 103
e 98 104
e 98 105
e 98 106
e 98 108
e 98 109
e 99 100
e 99 101
e 99 102
e 99 103
e 99 104
e 99 106
e 99 108
e 99 110
e 100 102
e 100 103
e 100 105
e 100 107
e 100 109
e 101 102
e 101 104
e 101 106
e 101 107
e 102 103
e 102 105
e 102 106
e 102 108
e 102 109
e 103 105
e 103 106
e 103 108
e 103 109
e 104 107
e 105 108
e 105 109
e 106 108
e 106 109
e 107 108
e 107 109
e 107 110
e 108 109
e 108 110
